# Solution for model GasLib-40
# Objective value = 1.0619342695738222e+01
loadshed[innode_1] 0
loadshed[innode_2] 0
loadshed[innode_3] 0
loadshed[innode_4] 0
loadshed[innode_5] 0
loadshed[innode_6] 0
loadshed[innode_7] 0
loadshed[innode_8] 0
loadshed[source_1] -2.2856001548768079e-01
loadshed[source_2] 1.0298896830137527e-01
loadshed[source_3] 1.9274369590947571e-01
loadshed[sink_1] 0
loadshed[sink_2] 0
loadshed[sink_3] 0
loadshed[sink_4] 0
loadshed[sink_5] 0
loadshed[sink_6] 0
loadshed[sink_7] 0
loadshed[sink_8] 0
loadshed[sink_9] 0
loadshed[sink_10] 0
loadshed[sink_11] 0
loadshed[sink_12] 6.4933560432539439e-01
loadshed[sink_13] 0
loadshed[sink_14] 0
loadshed[sink_15] 0
loadshed[sink_16] 0
loadshed[sink_17] 0
loadshed[sink_18] 0
loadshed[sink_19] 0
loadshed[sink_20] 0
loadshed[sink_21] 0
loadshed[sink_22] 0
loadshed[sink_23] 0
loadshed[sink_24] 0
loadshed[sink_25] 0
loadshed[sink_26] 0
loadshed[sink_27] 0
loadshed[sink_28] 0
loadshed[sink_29] 0
flow[source_1,sink_3] 1.9422339411511842e+02
flow[innode_1,sink_16] 1.6354166666666970e+01
flow[innode_6,sink_13] -1.3140206684866151e+01
flow[sink_13,sink_14] -2.9494373351532818e+01
flow[sink_14,sink_10] -4.5848540018199486e+01
flow[sink_25,sink_26] 1.5292232397092869e+02
flow[sink_26,sink_9] 1.3656815730426214e+02
flow[sink_9,sink_18] 1.2021399063759547e+02
flow[sink_26,sink_4] 0
flow[sink_4,sink_20] -3.2122754492429408e+01
flow[sink_18,sink_6] 1.0385982397092880e+02
flow[sink_25,innode_8] -1.6151506078178204e+02
flow[sink_6,sink_7] 5.4797323970928460e+01
flow[sink_6,sink_22] 3.2708333333333641e+01
flow[sink_7,sink_24] 3.8443157304261788e+01
flow[sink_22,sink_1] 1.6354166666666970e+01
flow[sink_24,sink_21] 2.2088990637595117e+01
flow[sink_21,sink_12] 5.7348239709284474e+00
flow[sink_7,sink_5] 0
flow[sink_5,sink_17] -1.6354166666667197e+01
flow[sink_17,sink_4] -1.5768587825762740e+01
flow[sink_17,sink_8] -1.6939745507571114e+01
flow[sink_3,sink_23] 16.3541666666697
flow[sink_8,sink_20] -3.3293912174237782e+01
flow[sink_25,sink_20] 8.1770833333333854e+01
flow[sink_25,sink_15] -7.6392056504282053e+01
flow[sink_15,sink_29] -9.2746223170948724e+01
flow[sink_29,sink_28] 1.6354166666667879e+01
flow[sink_29,sink_2] 1.6354166666684250e+01
flow[sink_2,sink_15] 0
flow[sink_29,innode_7] -1.4180872317096660e+02
flow[innode_4,sink_19] 4.9820305578944776e+01
flow[sink_19,innode_3] 4.6316186909597938e+01
flow[innode_4,innode_5] 7.7799067772588458e+01
flow[sink_27,innode_5] -7.7799067772588458e+01
flow[sink_27,sink_19] 6.1444901105921794e+01
flow[sink_10,sink_11] 3.2708333333333641e+01
flow[sink_10,innode_2] -4.8594853108601917e+01
flow[sink_10,innode_3] -4.6316186909597938e+01
flow[innode_6,sink_25] 1.3140206684866151e+01
flow[sink_11,innode_1] 1.6354166666666970e+01
flow[sink_19,innode_2] 4.8594853108601917e+01
flow[source_3,innode_4] 1.2761937335153323e+02
flow[source_2,innode_7] 1.4180872317096660e+02
flow[sink_3,innode_8] 1.6151506078178204e+02
pressure[innode_1] 76.2747624804252
pressure[innode_2] 7.8994902478134819e+01
pressure[innode_3] 7.8892340526962712e+01
pressure[innode_4] 81.01325
pressure[innode_5] 8.0959735698828467e+01
pressure[innode_6] 7.4132669766213169e+01
pressure[innode_7] 81.01325
pressure[innode_8] 8.0364035389499023e+01
pressure[source_1] 81.01325
pressure[source_2] 81.01325
pressure[source_3] 81.01325
pressure[sink_1] 4.5964338985543620e+01
pressure[sink_2] 7.6806152691747755e+01
pressure[sink_3] 8.0364035389499023e+01
pressure[sink_4] 5.2282078493163041e+01
pressure[sink_5] 5.0461187856418753e+01
pressure[sink_6] 4.8065416595930991e+01
pressure[sink_7] 4.7313179954861425e+01
pressure[sink_8] 5.2318635668150812e+01
pressure[sink_9] 55.1884836078698
pressure[sink_10] 7.6426463788028741e+01
pressure[sink_11] 76.2747624804252
pressure[sink_12] 1.0132500000000038e+00
pressure[sink_13] 74.2051095297343
pressure[sink_14] 7.4257892223211954e+01
pressure[sink_15] 7.4503245678346772e+01
pressure[sink_16] 7.5253112645607516e+01
pressure[sink_17] 51.6794550617735
pressure[sink_18] 5.0838783127288906e+01
pressure[sink_19] 7.8994902478134819e+01
pressure[sink_20] 5.4638753125384241e+01
pressure[sink_21] 3.0540142369948589e+00
pressure[sink_22] 4.7028108127898626e+01
pressure[sink_23] 8.0199317377839236e+01
pressure[sink_24] 3.2986292851862871e+00
pressure[sink_25] 7.4132669766213169e+01
pressure[sink_26] 6.3362440295241250e+01
pressure[sink_27] 8.0314147193535874e+01
pressure[sink_28] 7.6925139916594233e+01
pressure[sink_29] 7.7220422190211409e+01
interdiction[source_1,sink_3] 0
interdiction[innode_1,sink_16] 0
interdiction[innode_6,sink_13] 0
interdiction[sink_13,sink_14] 0
interdiction[sink_14,sink_10] 0
interdiction[sink_25,sink_26] 0
interdiction[sink_26,sink_9] 0
interdiction[sink_9,sink_18] 0
interdiction[sink_26,sink_4] 1
interdiction[sink_4,sink_20] 0
interdiction[sink_18,sink_6] 0
interdiction[sink_25,innode_8] 0
interdiction[sink_6,sink_7] 0
interdiction[sink_6,sink_22] 0
interdiction[sink_7,sink_24] 0
interdiction[sink_22,sink_1] 0
interdiction[sink_24,sink_21] 0
interdiction[sink_21,sink_12] 0
interdiction[sink_7,sink_5] 1
interdiction[sink_5,sink_17] 0
interdiction[sink_17,sink_4] 0
interdiction[sink_17,sink_8] 0
interdiction[sink_3,sink_23] 0
interdiction[sink_8,sink_20] 0
interdiction[sink_25,sink_20] 0
interdiction[sink_25,sink_15] 0
interdiction[sink_15,sink_29] 0
interdiction[sink_29,sink_28] 0
interdiction[sink_29,sink_2] 0
interdiction[sink_2,sink_15] 1
interdiction[sink_29,innode_7] 0
interdiction[innode_4,sink_19] 0
interdiction[sink_19,innode_3] 0
interdiction[innode_4,innode_5] 0
interdiction[sink_27,innode_5] 0
interdiction[sink_27,sink_19] 0
interdiction[sink_10,sink_11] 0
interdiction[sink_10,innode_2] 0
interdiction[sink_10,innode_3] 0
interdiction[innode_6,sink_25] 0
interdiction[sink_11,innode_1] 0
interdiction[sink_19,innode_2] 0
interdiction[source_3,innode_4] 0
interdiction[source_2,innode_7] 0
interdiction[sink_3,innode_8] 0
WCcheckFlow[source_1,sink_3] 39
WCcheckFlow[innode_1,sink_16] 1
WCcheckFlow[innode_6,sink_13] 13
WCcheckFlow[sink_13,sink_14] 12
WCcheckFlow[sink_14,sink_10] 11
WCcheckFlow[sink_25,sink_26] 10
WCcheckFlow[sink_26,sink_9] 9
WCcheckFlow[sink_9,sink_18] 8
WCcheckFlow[sink_26,sink_4] 0
WCcheckFlow[sink_4,sink_20] -4
WCcheckFlow[sink_18,sink_6] 7
WCcheckFlow[sink_25,innode_8] -36
WCcheckFlow[sink_6,sink_7] 4
WCcheckFlow[sink_6,sink_22] 2
WCcheckFlow[sink_7,sink_24] 3
WCcheckFlow[sink_22,sink_1] 1
WCcheckFlow[sink_24,sink_21] 2
WCcheckFlow[sink_21,sink_12] 1
WCcheckFlow[sink_7,sink_5] 0
WCcheckFlow[sink_5,sink_17] -1
WCcheckFlow[sink_17,sink_4] -3
WCcheckFlow[sink_17,sink_8] 1
WCcheckFlow[sink_3,sink_23] 1
WCcheckFlow[sink_8,sink_20] 0
WCcheckFlow[sink_25,sink_20] 5
WCcheckFlow[sink_25,sink_15] 6
WCcheckFlow[sink_15,sink_29] 5
WCcheckFlow[sink_29,sink_28] 1
WCcheckFlow[sink_29,sink_2] 1
WCcheckFlow[sink_2,sink_15] 0
WCcheckFlow[sink_29,innode_7] 2
WCcheckFlow[innode_4,sink_19] -4
WCcheckFlow[sink_19,innode_3] -5
WCcheckFlow[innode_4,innode_5] 2
WCcheckFlow[sink_27,innode_5] -1
WCcheckFlow[sink_27,sink_19] 0
WCcheckFlow[sink_10,sink_11] 3
WCcheckFlow[sink_10,innode_2] 1
WCcheckFlow[sink_10,innode_3] 6
WCcheckFlow[innode_6,sink_25] -14
WCcheckFlow[sink_11,innode_1] 2
WCcheckFlow[sink_19,innode_2] 0
WCcheckFlow[source_3,innode_4] -1
WCcheckFlow[source_2,innode_7] -1
WCcheckFlow[sink_3,innode_8] 37
